nohup: ignoring input
original problem has 11923 variables (11923 bin, 0 int, 0 impl, 0 cont) and 15151 constraints
original problem has 1863 variables (1863 bin, 0 int, 0 impl, 0 cont) and 2212 constraints
original problem has 1031 variables (1031 bin, 0 int, 0 impl, 0 cont) and 1176 constraints
original problem has 2799 variables (2799 bin, 0 int, 0 impl, 0 cont) and 3420 constraints
original problem has 945 variables (945 bin, 0 int, 0 impl, 0 cont) and 1099 constraints
original problem has 8065 variables (8065 bin, 0 int, 0 impl, 0 cont) and 10215 constraints
original problem has 575 variables (575 bin, 0 int, 0 impl, 0 cont) and 615 constraints
original problem has 14034 variables (14034 bin, 0 int, 0 impl, 0 cont) and 17998 constraints
original problem has 5012 variables (5012 bin, 0 int, 0 impl, 0 cont) and 6317 constraints
original problem has 9987 variables (9987 bin, 0 int, 0 impl, 0 cont) and 12702 constraints
original problem has 1894 variables (1894 bin, 0 int, 0 impl, 0 cont) and 2223 constraints
original problem has 1678 variables (1678 bin, 0 int, 0 impl, 0 cont) and 2004 constraints
original problem has 1821 variables (1821 bin, 0 int, 0 impl, 0 cont) and 2155 constraints
original problem has 3836 variables (3836 bin, 0 int, 0 impl, 0 cont) and 4681 constraints
original problem has 1775 variables (1775 bin, 0 int, 0 impl, 0 cont) and 2106 constraints
original problem has 14328 variables (14328 bin, 0 int, 0 impl, 0 cont) and 18328 constraints
original problem has 1733 variables (1733 bin, 0 int, 0 impl, 0 cont) and 2056 constraints
original problem has 10044 variables (10044 bin, 0 int, 0 impl, 0 cont) and 12715 constraints
original problem has 1052 variables (1052 bin, 0 int, 0 impl, 0 cont) and 1208 constraints
original problem has 5042 variables (5042 bin, 0 int, 0 impl, 0 cont) and 6253 constraints
original problem has 10016 variables (10016 bin, 0 int, 0 impl, 0 cont) and 12694 constraints
original problem has 490 variables (490 bin, 0 int, 0 impl, 0 cont) and 518 constraints
original problem has 3701 variables (3701 bin, 0 int, 0 impl, 0 cont) and 4554 constraints
original problem has 3824 variables (3824 bin, 0 int, 0 impl, 0 cont) and 4661 constraints
original problem has 1094 variables (1094 bin, 0 int, 0 impl, 0 cont) and 1241 constraints
original problem has 2707 variables (2707 bin, 0 int, 0 impl, 0 cont) and 3277 constraints
original problem has 999 variables (999 bin, 0 int, 0 impl, 0 cont) and 1159 constraints
original problem has 3938 variables (3938 bin, 0 int, 0 impl, 0 cont) and 4788 constraints
original problem has 4955 variables (4955 bin, 0 int, 0 impl, 0 cont) and 6115 constraints
original problem has 10027 variables (10027 bin, 0 int, 0 impl, 0 cont) and 12720 constraints
original problem has 8136 variables (8136 bin, 0 int, 0 impl, 0 cont) and 10343 constraints
original problem has 1743 variables (1743 bin, 0 int, 0 impl, 0 cont) and 2015 constraints
original problem has 3778 variables (3778 bin, 0 int, 0 impl, 0 cont) and 4607 constraints
original problem has 4950 variables (4950 bin, 0 int, 0 impl, 0 cont) and 6158 constraints
original problem has 5190 variables (5190 bin, 0 int, 0 impl, 0 cont) and 6411 constraints
original problem has 11923 variables (11923 bin, 0 int, 0 impl, 0 cont) and 15151 constraints
original problem has 1863 variables (1863 bin, 0 int, 0 impl, 0 cont) and 2212 constraints
original problem has 1031 variables (1031 bin, 0 int, 0 impl, 0 cont) and 1176 constraints
original problem has 2799 variables (2799 bin, 0 int, 0 impl, 0 cont) and 3420 constraints
original problem has 945 variables (945 bin, 0 int, 0 impl, 0 cont) and 1099 constraints
original problem has 8065 variables (8065 bin, 0 int, 0 impl, 0 cont) and 10215 constraints
original problem has 575 variables (575 bin, 0 int, 0 impl, 0 cont) and 615 constraints
original problem has 14034 variables (14034 bin, 0 int, 0 impl, 0 cont) and 17998 constraints
original problem has 5012 variables (5012 bin, 0 int, 0 impl, 0 cont) and 6317 constraints
original problem has 9987 variables (9987 bin, 0 int, 0 impl, 0 cont) and 12702 constraints
original problem has 1894 variables (1894 bin, 0 int, 0 impl, 0 cont) and 2223 constraints
original problem has 1678 variables (1678 bin, 0 int, 0 impl, 0 cont) and 2004 constraints
original problem has 1821 variables (1821 bin, 0 int, 0 impl, 0 cont) and 2155 constraints
original problem has 3836 variables (3836 bin, 0 int, 0 impl, 0 cont) and 4681 constraints
original problem has 1775 variables (1775 bin, 0 int, 0 impl, 0 cont) and 2106 constraints
original problem has 14328 variables (14328 bin, 0 int, 0 impl, 0 cont) and 18328 constraints
original problem has 1733 variables (1733 bin, 0 int, 0 impl, 0 cont) and 2056 constraints
original problem has 10044 variables (10044 bin, 0 int, 0 impl, 0 cont) and 12715 constraints
original problem has 1052 variables (1052 bin, 0 int, 0 impl, 0 cont) and 1208 constraints
original problem has 5042 variables (5042 bin, 0 int, 0 impl, 0 cont) and 6253 constraints
original problem has 10016 variables (10016 bin, 0 int, 0 impl, 0 cont) and 12694 constraints
original problem has 490 variables (490 bin, 0 int, 0 impl, 0 cont) and 518 constraints
original problem has 3701 variables (3701 bin, 0 int, 0 impl, 0 cont) and 4554 constraints
original problem has 3824 variables (3824 bin, 0 int, 0 impl, 0 cont) and 4661 constraints
original problem has 1094 variables (1094 bin, 0 int, 0 impl, 0 cont) and 1241 constraints
original problem has 2707 variables (2707 bin, 0 int, 0 impl, 0 cont) and 3277 constraints
original problem has 999 variables (999 bin, 0 int, 0 impl, 0 cont) and 1159 constraints
original problem has 3938 variables (3938 bin, 0 int, 0 impl, 0 cont) and 4788 constraints
original problem has 4955 variables (4955 bin, 0 int, 0 impl, 0 cont) and 6115 constraints
original problem has 10027 variables (10027 bin, 0 int, 0 impl, 0 cont) and 12720 constraints
original problem has 8136 variables (8136 bin, 0 int, 0 impl, 0 cont) and 10343 constraints
original problem has 1743 variables (1743 bin, 0 int, 0 impl, 0 cont) and 2015 constraints
original problem has 3778 variables (3778 bin, 0 int, 0 impl, 0 cont) and 4607 constraints
original problem has 4950 variables (4950 bin, 0 int, 0 impl, 0 cont) and 6158 constraints
original problem has 5190 variables (5190 bin, 0 int, 0 impl, 0 cont) and 6411 constraints
original problem has 3648 variables (192 bin, 0 int, 0 impl, 3456 cont) and 3312 constraints
original problem has 842 variables (421 bin, 0 int, 0 impl, 421 cont) and 479 constraints
original problem has 2728 variables (1364 bin, 0 int, 0 impl, 1364 cont) and 1442 constraints
original problem has 8904 variables (8904 bin, 0 int, 0 impl, 0 cont) and 1069 constraints
original problem has 7195 variables (7195 bin, 0 int, 0 impl, 0 cont) and 714 constraints
original problem has 6000 variables (6000 bin, 0 int, 0 impl, 0 cont) and 2171 constraints
original problem has 13873 variables (552 bin, 0 int, 0 impl, 13321 cont) and 3215 constraints
original problem has 521 variables (56 bin, 0 int, 0 impl, 465 cont) and 688 constraints
original problem has 67732 variables (67732 bin, 0 int, 0 impl, 0 cont) and 656 constraints
original problem has 63009 variables (63009 bin, 0 int, 0 impl, 0 cont) and 507 constraints
original problem has 1298 variables (1254 bin, 0 int, 0 impl, 44 cont) and 353 constraints
original problem has 322 variables (302 bin, 0 int, 0 impl, 20 cont) and 394 constraints
original problem has 2993 variables (2993 bin, 0 int, 0 impl, 0 cont) and 102 constraints
original problem has 1156 variables (1089 bin, 0 int, 0 impl, 67 cont) and 2178 constraints
original problem has 260 variables (259 bin, 0 int, 0 impl, 1 cont) and 224 constraints
original problem has 5325 variables (5323 bin, 0 int, 0 impl, 2 cont) and 3411 constraints
original problem has 10958 variables (96 bin, 0 int, 0 impl, 10862 cont) and 4480 constraints
original problem has 5174 variables (2349 bin, 0 int, 0 impl, 2825 cont) and 26509 constraints
original problem has 6621 variables (6620 bin, 0 int, 0 impl, 1 cont) and 721 constraints
original problem has 769 variables (768 bin, 0 int, 0 impl, 1 cont) and 64 constraints
original problem has 2756 variables (2756 bin, 0 int, 0 impl, 0 cont) and 729 constraints
original problem has 1835 variables (1835 bin, 0 int, 0 impl, 0 cont) and 2387 constraints
original problem has 840 variables (48 bin, 0 int, 0 impl, 792 cont) and 1192 constraints
original problem has 1372 variables (1372 bin, 0 int, 0 impl, 0 cont) and 4944 constraints
original problem has 14101 variables (14101 bin, 0 int, 0 impl, 0 cont) and 1739 constraints
original problem has 6805 variables (6724 bin, 0 int, 0 impl, 81 cont) and 564 constraints
original problem has 73885 variables (73885 bin, 0 int, 0 impl, 0 cont) and 1755 constraints
original problem has 1080 variables (360 bin, 0 int, 0 impl, 720 cont) and 742 constraints
original problem has 12481 variables (192 bin, 0 int, 0 impl, 12289 cont) and 22400 constraints
original problem has 3648 variables (192 bin, 0 int, 0 impl, 3456 cont) and 3312 constraints
original problem has 842 variables (421 bin, 0 int, 0 impl, 421 cont) and 479 constraints
original problem has 2728 variables (1364 bin, 0 int, 0 impl, 1364 cont) and 1442 constraints
original problem has 8904 variables (8904 bin, 0 int, 0 impl, 0 cont) and 1069 constraints
original problem has 7195 variables (7195 bin, 0 int, 0 impl, 0 cont) and 714 constraints
original problem has 6000 variables (6000 bin, 0 int, 0 impl, 0 cont) and 2171 constraints
original problem has 13873 variables (552 bin, 0 int, 0 impl, 13321 cont) and 3215 constraints
original problem has 521 variables (56 bin, 0 int, 0 impl, 465 cont) and 688 constraints
original problem has 67732 variables (67732 bin, 0 int, 0 impl, 0 cont) and 656 constraints
original problem has 63009 variables (63009 bin, 0 int, 0 impl, 0 cont) and 507 constraints
original problem has 1298 variables (1254 bin, 0 int, 0 impl, 44 cont) and 353 constraints
original problem has 322 variables (302 bin, 0 int, 0 impl, 20 cont) and 394 constraints
original problem has 2993 variables (2993 bin, 0 int, 0 impl, 0 cont) and 102 constraints
original problem has 1156 variables (1089 bin, 0 int, 0 impl, 67 cont) and 2178 constraints
original problem has 260 variables (259 bin, 0 int, 0 impl, 1 cont) and 224 constraints
original problem has 5325 variables (5323 bin, 0 int, 0 impl, 2 cont) and 3411 constraints
original problem has 10958 variables (96 bin, 0 int, 0 impl, 10862 cont) and 4480 constraints
original problem has 5174 variables (2349 bin, 0 int, 0 impl, 2825 cont) and 26509 constraints
original problem has 6621 variables (6620 bin, 0 int, 0 impl, 1 cont) and 721 constraints
original problem has 769 variables (768 bin, 0 int, 0 impl, 1 cont) and 64 constraints
original problem has 2756 variables (2756 bin, 0 int, 0 impl, 0 cont) and 729 constraints
original problem has 1835 variables (1835 bin, 0 int, 0 impl, 0 cont) and 2387 constraints
original problem has 840 variables (48 bin, 0 int, 0 impl, 792 cont) and 1192 constraints
original problem has 1372 variables (1372 bin, 0 int, 0 impl, 0 cont) and 4944 constraints
original problem has 14101 variables (14101 bin, 0 int, 0 impl, 0 cont) and 1739 constraints
original problem has 6805 variables (6724 bin, 0 int, 0 impl, 81 cont) and 564 constraints
original problem has 73885 variables (73885 bin, 0 int, 0 impl, 0 cont) and 1755 constraints
original problem has 1080 variables (360 bin, 0 int, 0 impl, 720 cont) and 742 constraints
original problem has 12481 variables (192 bin, 0 int, 0 impl, 12289 cont) and 22400 constraints
/home/liudefen/projects/ML4LocalBranch_extend/execute_heuristics.py:1426: RuntimeWarning: invalid value encountered in double_scalars
  primal_int_reinforce_ave = primal_int_reinforces.sum() / len(
/home/liudefen/projects/ML4LocalBranch_extend/execute_heuristics.py:1443: RuntimeWarning: invalid value encountered in double_scalars
  primal_gap_final_reinforce_ave = primal_gap_final_reinforces.sum() / len(
/home/liudefen/projects/ML4LocalBranch_extend/execute_heuristics.py:1426: RuntimeWarning: invalid value encountered in double_scalars
  primal_int_reinforce_ave = primal_int_reinforces.sum() / len(
/home/liudefen/projects/ML4LocalBranch_extend/execute_heuristics.py:1443: RuntimeWarning: invalid value encountered in double_scalars
  primal_gap_final_reinforce_ave = primal_gap_final_reinforces.sum() / len(
/home/liudefen/projects/ML4LocalBranch_extend/execute_heuristics.py:1426: RuntimeWarning: invalid value encountered in double_scalars
  primal_int_reinforce_ave = primal_int_reinforces.sum() / len(
/home/liudefen/projects/ML4LocalBranch_extend/execute_heuristics.py:1443: RuntimeWarning: invalid value encountered in double_scalars
  primal_gap_final_reinforce_ave = primal_gap_final_reinforces.sum() / len(
/home/liudefen/projects/ML4LocalBranch_extend/execute_heuristics.py:1426: RuntimeWarning: invalid value encountered in double_scalars
  primal_int_reinforce_ave = primal_int_reinforces.sum() / len(
/home/liudefen/projects/ML4LocalBranch_extend/execute_heuristics.py:1443: RuntimeWarning: invalid value encountered in double_scalars
  primal_gap_final_reinforce_ave = primal_gap_final_reinforces.sum() / len(
generalized_independentset-small
firstsol
symmetric
./result/generated_instances/generalized_independentset/-small/firstsol/scip/heuristic_mode/lb-from-firstsol-t_total600s-t_node2s-small_lb_k0_regression_beforenode/seed0/
./result/generated_instances/generalized_independentset/-small/firstsol/scip/heuristic_mode/lb-from-firstsol-t_total600s-t_node2s-small_lb_baseline_beforenode/seed0/
./result/generated_instances/generalized_independentset/-small/firstsol/scip/heuristic_mode/lb-from-firstsol-t_total600s-t_node2s-small_lb_baseline_beforenode_freq100/seed0/
./result/generated_instances/generalized_independentset/-small/firstsol/scip/heuristic_mode/lb-from-firstsol-t_total600s-t_node2s-small_lb_k0_regression_beforenode/seed0/
./result/generated_instances/generalized_independentset/-small/firstsol/scip/heuristic_mode/lb-from-firstsol-t_total600s-t_node2s-small_lb_k0_regression_beforenode_freq100/seed0/
./result/generated_instances/generalized_independentset/-small/firstsol/scip/heuristic_mode/lb-from-firstsol-t_total600s-t_node2s-small_lb_k0_rl_beforenode/seed0/
./result/generated_instances/generalized_independentset/-small/firstsol/scip/heuristic_mode/lb-from-firstsol-t_total600s-t_node2s-small_lb_k0_rl_beforenode_freq100/seed0/
./result/generated_instances/generalized_independentset/-small/firstsol/scip/heuristic_mode/lb-from-firstsol-t_total600s-t_node2s-small_lb_k0_regression_rl_beforenode/seed0/
./result/generated_instances/generalized_independentset/-small/firstsol/scip/heuristic_mode/lb-from-firstsol-t_total600s-t_node2s-small_lb_k0_regression_rl_beforenode_freq100/seed0/
seed: 0
cpu
generalized_independentset
firstsolSolution
scip-baseline primal integral:  38.536933958342956
scip-lb-baseline primal integral:  46.03939325599159
scip-lb-regression primal integral:  42.95762025459375
scip-lb-rl primal integral:  44.64919259743317
scip-lb-regression-rl primal integral:  41.54240110286467
scip-lb-baseline-multi primal integral:  45.3083936251391
scip-lb-regression-multi primal integral:  42.17039117474352
scip-lb-rl-multi primal integral:  43.875844516500834
scip-lb-regression-rl-multi primal integral:  40.7866963150152
rl primal integral:  nan


scip-baseline primal gap:  0.6871598074157859
scip-lb-baseline primal gap:  1.4719402877476517
scip-lb-regression primal gap:  0.5417220864049993
scip-lb-rl primal gap:  1.2089570743266806
scip-lb-regression-rl primal gap:  0.5960942683916463
scip-lb-baseline-multi primal gap:  1.4376997252571753
scip-lb-regression-multi primal gap:  0.508705426931068
scip-lb-rl-multi primal gap:  1.169125230454499
scip-lb-regression-rl-multi primal gap:  0.5687320723547515
rl primal gap:  nan
seed mcts:  0
seed mcts:  0
generalized_independentset-large
firstsol
symmetric
./result/generated_instances/generalized_independentset/-large/firstsol/scip/heuristic_mode/lb-from-firstsol-t_total600s-t_node2s-large_lb_k0_regression_beforenode/seed0/
./result/generated_instances/generalized_independentset/-large/firstsol/scip/heuristic_mode/lb-from-firstsol-t_total600s-t_node2s-large_lb_baseline_beforenode/seed0/
./result/generated_instances/generalized_independentset/-large/firstsol/scip/heuristic_mode/lb-from-firstsol-t_total600s-t_node2s-large_lb_baseline_beforenode_freq100/seed0/
./result/generated_instances/generalized_independentset/-large/firstsol/scip/heuristic_mode/lb-from-firstsol-t_total600s-t_node2s-large_lb_k0_regression_beforenode/seed0/
./result/generated_instances/generalized_independentset/-large/firstsol/scip/heuristic_mode/lb-from-firstsol-t_total600s-t_node2s-large_lb_k0_regression_beforenode_freq100/seed0/
./result/generated_instances/generalized_independentset/-large/firstsol/scip/heuristic_mode/lb-from-firstsol-t_total600s-t_node2s-large_lb_k0_rl_beforenode/seed0/
./result/generated_instances/generalized_independentset/-large/firstsol/scip/heuristic_mode/lb-from-firstsol-t_total600s-t_node2s-large_lb_k0_rl_beforenode_freq100/seed0/
./result/generated_instances/generalized_independentset/-large/firstsol/scip/heuristic_mode/lb-from-firstsol-t_total600s-t_node2s-large_lb_k0_regression_rl_beforenode/seed0/
./result/generated_instances/generalized_independentset/-large/firstsol/scip/heuristic_mode/lb-from-firstsol-t_total600s-t_node2s-large_lb_k0_regression_rl_beforenode_freq100/seed0/
seed: 0
cpu
generalized_independentset-small
rootsol
symmetric
./result/generated_instances/generalized_independentset/-small/rootsol/scip/heuristic_mode/lb-from-rootsol-t_total600s-t_node2s-small_lb_k0_regression_beforenode/seed0/
./result/generated_instances/generalized_independentset/-small/rootsol/scip/heuristic_mode/lb-from-rootsol-t_total600s-t_node2s-small_lb_baseline_beforenode/seed0/
./result/generated_instances/generalized_independentset/-small/rootsol/scip/heuristic_mode/lb-from-rootsol-t_total600s-t_node2s-small_lb_baseline_beforenode_freq100/seed0/
./result/generated_instances/generalized_independentset/-small/rootsol/scip/heuristic_mode/lb-from-rootsol-t_total600s-t_node2s-small_lb_k0_regression_beforenode/seed0/
./result/generated_instances/generalized_independentset/-small/rootsol/scip/heuristic_mode/lb-from-rootsol-t_total600s-t_node2s-small_lb_k0_regression_beforenode_freq100/seed0/
./result/generated_instances/generalized_independentset/-small/rootsol/scip/heuristic_mode/lb-from-rootsol-t_total600s-t_node2s-small_lb_k0_rl_beforenode/seed0/
./result/generated_instances/generalized_independentset/-small/rootsol/scip/heuristic_mode/lb-from-rootsol-t_total600s-t_node2s-small_lb_k0_rl_beforenode_freq100/seed0/
./result/generated_instances/generalized_independentset/-small/rootsol/scip/heuristic_mode/lb-from-rootsol-t_total600s-t_node2s-small_lb_k0_regression_rl_beforenode/seed0/
./result/generated_instances/generalized_independentset/-small/rootsol/scip/heuristic_mode/lb-from-rootsol-t_total600s-t_node2s-small_lb_k0_regression_rl_beforenode_freq100/seed0/
seed: 0
cpu
generalized_independentset
rootsolSolution
scip-baseline primal integral:  37.24723991714818
scip-lb-baseline primal integral:  45.19578383283808
scip-lb-regression primal integral:  42.18562308926804
scip-lb-rl primal integral:  45.61024316161172
scip-lb-regression-rl primal integral:  39.73350175024779
scip-lb-baseline-multi primal integral:  45.04714116796287
scip-lb-regression-multi primal integral:  41.217278753226616
scip-lb-rl-multi primal integral:  45.69878679121779
scip-lb-regression-rl-multi primal integral:  39.702178299899224
rl primal integral:  nan


scip-baseline primal gap:  0.6548079320598292
scip-lb-baseline primal gap:  1.4332314143481213
scip-lb-regression primal gap:  0.8637661213275738
scip-lb-rl primal gap:  1.500727919632099
scip-lb-regression-rl primal gap:  0.7231932705016864
scip-lb-baseline-multi primal gap:  1.4329492831288912
scip-lb-regression-multi primal gap:  0.732971216266935
scip-lb-rl-multi primal gap:  1.5428078715407252
scip-lb-regression-rl-multi primal gap:  0.743542194974811
rl primal gap:  nan
seed mcts:  0
seed mcts:  0
generalized_independentset-large
rootsol
symmetric
./result/generated_instances/generalized_independentset/-large/rootsol/scip/heuristic_mode/lb-from-rootsol-t_total600s-t_node2s-large_lb_k0_regression_beforenode/seed0/
./result/generated_instances/generalized_independentset/-large/rootsol/scip/heuristic_mode/lb-from-rootsol-t_total600s-t_node2s-large_lb_baseline_beforenode/seed0/
./result/generated_instances/generalized_independentset/-large/rootsol/scip/heuristic_mode/lb-from-rootsol-t_total600s-t_node2s-large_lb_baseline_beforenode_freq100/seed0/
./result/generated_instances/generalized_independentset/-large/rootsol/scip/heuristic_mode/lb-from-rootsol-t_total600s-t_node2s-large_lb_k0_regression_beforenode/seed0/
./result/generated_instances/generalized_independentset/-large/rootsol/scip/heuristic_mode/lb-from-rootsol-t_total600s-t_node2s-large_lb_k0_regression_beforenode_freq100/seed0/
./result/generated_instances/generalized_independentset/-large/rootsol/scip/heuristic_mode/lb-from-rootsol-t_total600s-t_node2s-large_lb_k0_rl_beforenode/seed0/
./result/generated_instances/generalized_independentset/-large/rootsol/scip/heuristic_mode/lb-from-rootsol-t_total600s-t_node2s-large_lb_k0_rl_beforenode_freq100/seed0/
./result/generated_instances/generalized_independentset/-large/rootsol/scip/heuristic_mode/lb-from-rootsol-t_total600s-t_node2s-large_lb_k0_regression_rl_beforenode/seed0/
./result/generated_instances/generalized_independentset/-large/rootsol/scip/heuristic_mode/lb-from-rootsol-t_total600s-t_node2s-large_lb_k0_regression_rl_beforenode_freq100/seed0/
seed: 0
cpu
miplib_39binary-small
firstsol
symmetric
./result/generated_instances/miplib_39binary/-small/firstsol/scip/heuristic_mode/lb-from-firstsol-t_total600s-t_node2s-small_lb_k0_regression_beforenode/seed0/
./result/generated_instances/miplib_39binary/-small/firstsol/scip/heuristic_mode/lb-from-firstsol-t_total600s-t_node2s-small_lb_baseline_beforenode/seed0/
./result/generated_instances/miplib_39binary/-small/firstsol/scip/heuristic_mode/lb-from-firstsol-t_total600s-t_node2s-small_lb_baseline_beforenode_freq100/seed0/
./result/generated_instances/miplib_39binary/-small/firstsol/scip/heuristic_mode/lb-from-firstsol-t_total600s-t_node2s-small_lb_k0_regression_beforenode/seed0/
./result/generated_instances/miplib_39binary/-small/firstsol/scip/heuristic_mode/lb-from-firstsol-t_total600s-t_node2s-small_lb_k0_regression_beforenode_freq100/seed0/
./result/generated_instances/miplib_39binary/-small/firstsol/scip/heuristic_mode/lb-from-firstsol-t_total600s-t_node2s-small_lb_k0_rl_beforenode/seed0/
./result/generated_instances/miplib_39binary/-small/firstsol/scip/heuristic_mode/lb-from-firstsol-t_total600s-t_node2s-small_lb_k0_rl_beforenode_freq100/seed0/
./result/generated_instances/miplib_39binary/-small/firstsol/scip/heuristic_mode/lb-from-firstsol-t_total600s-t_node2s-small_lb_k0_regression_rl_beforenode/seed0/
./result/generated_instances/miplib_39binary/-small/firstsol/scip/heuristic_mode/lb-from-firstsol-t_total600s-t_node2s-small_lb_k0_regression_rl_beforenode_freq100/seed0/
seed: 0
cpu
miplib_39binary
firstsolSolution
scip-baseline primal integral:  47.464461540047935
scip-lb-baseline primal integral:  47.40113082792182
scip-lb-regression primal integral:  36.40453916236927
scip-lb-rl primal integral:  50.3518302557703
scip-lb-regression-rl primal integral:  36.67219384296199
scip-lb-baseline-multi primal integral:  50.453760337979794
scip-lb-regression-multi primal integral:  46.293054400631235
scip-lb-rl-multi primal integral:  50.44847214543125
scip-lb-regression-rl-multi primal integral:  46.773963424659854
rl primal integral:  nan


scip-baseline primal gap:  6.921873402466396
scip-lb-baseline primal gap:  5.9722274517704115
scip-lb-regression primal gap:  1.018063530373412
scip-lb-rl primal gap:  6.717732747274324
scip-lb-regression-rl primal gap:  5.323656620774073
scip-lb-baseline-multi primal gap:  10.824818526711628
scip-lb-regression-multi primal gap:  10.361762044925962
scip-lb-rl-multi primal gap:  10.532933890760468
scip-lb-regression-rl-multi primal gap:  9.870877579641846
rl primal gap:  nan
seed mcts:  0
seed mcts:  0
miplib_39binary-large
firstsol
symmetric
./result/generated_instances/miplib_39binary/-large/firstsol/scip/heuristic_mode/lb-from-firstsol-t_total600s-t_node2s-large_lb_k0_regression_beforenode/seed0/
./result/generated_instances/miplib_39binary/-large/firstsol/scip/heuristic_mode/lb-from-firstsol-t_total600s-t_node2s-large_lb_baseline_beforenode/seed0/
./result/generated_instances/miplib_39binary/-large/firstsol/scip/heuristic_mode/lb-from-firstsol-t_total600s-t_node2s-large_lb_baseline_beforenode_freq100/seed0/
./result/generated_instances/miplib_39binary/-large/firstsol/scip/heuristic_mode/lb-from-firstsol-t_total600s-t_node2s-large_lb_k0_regression_beforenode/seed0/
./result/generated_instances/miplib_39binary/-large/firstsol/scip/heuristic_mode/lb-from-firstsol-t_total600s-t_node2s-large_lb_k0_regression_beforenode_freq100/seed0/
./result/generated_instances/miplib_39binary/-large/firstsol/scip/heuristic_mode/lb-from-firstsol-t_total600s-t_node2s-large_lb_k0_rl_beforenode/seed0/
./result/generated_instances/miplib_39binary/-large/firstsol/scip/heuristic_mode/lb-from-firstsol-t_total600s-t_node2s-large_lb_k0_rl_beforenode_freq100/seed0/
./result/generated_instances/miplib_39binary/-large/firstsol/scip/heuristic_mode/lb-from-firstsol-t_total600s-t_node2s-large_lb_k0_regression_rl_beforenode/seed0/
./result/generated_instances/miplib_39binary/-large/firstsol/scip/heuristic_mode/lb-from-firstsol-t_total600s-t_node2s-large_lb_k0_regression_rl_beforenode_freq100/seed0/
seed: 0
cpu
miplib_39binary-small
rootsol
symmetric
./result/generated_instances/miplib_39binary/-small/rootsol/scip/heuristic_mode/lb-from-rootsol-t_total600s-t_node2s-small_lb_k0_regression_beforenode/seed0/
./result/generated_instances/miplib_39binary/-small/rootsol/scip/heuristic_mode/lb-from-rootsol-t_total600s-t_node2s-small_lb_baseline_beforenode/seed0/
./result/generated_instances/miplib_39binary/-small/rootsol/scip/heuristic_mode/lb-from-rootsol-t_total600s-t_node2s-small_lb_baseline_beforenode_freq100/seed0/
./result/generated_instances/miplib_39binary/-small/rootsol/scip/heuristic_mode/lb-from-rootsol-t_total600s-t_node2s-small_lb_k0_regression_beforenode/seed0/
./result/generated_instances/miplib_39binary/-small/rootsol/scip/heuristic_mode/lb-from-rootsol-t_total600s-t_node2s-small_lb_k0_regression_beforenode_freq100/seed0/
./result/generated_instances/miplib_39binary/-small/rootsol/scip/heuristic_mode/lb-from-rootsol-t_total600s-t_node2s-small_lb_k0_rl_beforenode/seed0/
./result/generated_instances/miplib_39binary/-small/rootsol/scip/heuristic_mode/lb-from-rootsol-t_total600s-t_node2s-small_lb_k0_rl_beforenode_freq100/seed0/
./result/generated_instances/miplib_39binary/-small/rootsol/scip/heuristic_mode/lb-from-rootsol-t_total600s-t_node2s-small_lb_k0_regression_rl_beforenode/seed0/
./result/generated_instances/miplib_39binary/-small/rootsol/scip/heuristic_mode/lb-from-rootsol-t_total600s-t_node2s-small_lb_k0_regression_rl_beforenode_freq100/seed0/
seed: 0
cpu
miplib_39binary
rootsolSolution
scip-baseline primal integral:  37.15828070574669
scip-lb-baseline primal integral:  40.3447358473684
scip-lb-regression primal integral:  32.36007959550937
scip-lb-rl primal integral:  42.46636040651255
scip-lb-regression-rl primal integral:  31.17209469390847
scip-lb-baseline-multi primal integral:  39.75784134070086
scip-lb-regression-multi primal integral:  35.04641087969735
scip-lb-rl-multi primal integral:  41.17342877464801
scip-lb-regression-rl-multi primal integral:  35.84980992517491
rl primal integral:  nan


scip-baseline primal gap:  1.1203754043147947
scip-lb-baseline primal gap:  8.863689415375552
scip-lb-regression primal gap:  3.829766905979967
scip-lb-rl primal gap:  9.415079252982618
scip-lb-regression-rl primal gap:  3.3895239538648063
scip-lb-baseline-multi primal gap:  8.430117228206836
scip-lb-regression-multi primal gap:  8.181708339335865
scip-lb-rl-multi primal gap:  9.091049719723468
scip-lb-regression-rl-multi primal gap:  8.262519145215533
rl primal gap:  nan
seed mcts:  0
seed mcts:  0
miplib_39binary-large
rootsol
symmetric
./result/generated_instances/miplib_39binary/-large/rootsol/scip/heuristic_mode/lb-from-rootsol-t_total600s-t_node2s-large_lb_k0_regression_beforenode/seed0/
./result/generated_instances/miplib_39binary/-large/rootsol/scip/heuristic_mode/lb-from-rootsol-t_total600s-t_node2s-large_lb_baseline_beforenode/seed0/
./result/generated_instances/miplib_39binary/-large/rootsol/scip/heuristic_mode/lb-from-rootsol-t_total600s-t_node2s-large_lb_baseline_beforenode_freq100/seed0/
./result/generated_instances/miplib_39binary/-large/rootsol/scip/heuristic_mode/lb-from-rootsol-t_total600s-t_node2s-large_lb_k0_regression_beforenode/seed0/
./result/generated_instances/miplib_39binary/-large/rootsol/scip/heuristic_mode/lb-from-rootsol-t_total600s-t_node2s-large_lb_k0_regression_beforenode_freq100/seed0/
./result/generated_instances/miplib_39binary/-large/rootsol/scip/heuristic_mode/lb-from-rootsol-t_total600s-t_node2s-large_lb_k0_rl_beforenode/seed0/
./result/generated_instances/miplib_39binary/-large/rootsol/scip/heuristic_mode/lb-from-rootsol-t_total600s-t_node2s-large_lb_k0_rl_beforenode_freq100/seed0/
./result/generated_instances/miplib_39binary/-large/rootsol/scip/heuristic_mode/lb-from-rootsol-t_total600s-t_node2s-large_lb_k0_regression_rl_beforenode/seed0/
./result/generated_instances/miplib_39binary/-large/rootsol/scip/heuristic_mode/lb-from-rootsol-t_total600s-t_node2s-large_lb_k0_regression_rl_beforenode_freq100/seed0/
seed: 0
cpu
